CMPL model generation - running

CMPL version: 1.11.0
Authors: Thomas Schleiff, Mike Steglich
Distributed under the GPLv3 

create model instance ...
write model instance ...
CMPL model generation - finished

Solver - running


Welcome to IBM(R) ILOG(R) CPLEX(R) Interactive Optimizer 12.7.1.0
  with Simplex, Mixed Integer & Barrier Optimizers
5725-A06 5725-A29 5724-Y48 5724-Y49 5724-Y54 5724-Y55 5655-Y21
Copyright IBM Corp. 1988, 2017.  All Rights Reserved.

Type 'help' for a list of available commands.
Type 'help' followed by a command name for more
information on commands.

CPLEX> Specified objective sense: MINIMIZE
Selected objective  name:  line[1]
Selected RHS        name:  RHS
Selected bound      name:  BOUND
Problem '/tmp/cmpl.T24175.mps' read.
Read time = 0.06 sec. (8.17 ticks)
CPLEX> CPXPARAM_Read_APIEncoding                        "UTF-8"
Tried aggregator 3 times.
MIP Presolve eliminated 19206 rows and 30647 columns.
MIP Presolve modified 340 coefficients.
Aggregator did 643 substitutions.
Reduced MIP has 2506 rows, 3303 columns, and 9623 nonzeros.
Reduced MIP has 3135 binaries, 0 generals, 0 SOSs, and 0 indicators.
Presolve time = 0.07 sec. (40.48 ticks)
Found incumbent of value 688.772410 after 0.11 sec. (61.93 ticks)
Probing fixed 5 vars, tightened 0 bounds.
Probing time = 0.01 sec. (4.34 ticks)
Tried aggregator 1 time.
MIP Presolve eliminated 0 rows and 5 columns.
MIP Presolve modified 22 coefficients.
Reduced MIP has 2506 rows, 3298 columns, and 9613 nonzeros.
Reduced MIP has 3298 binaries, 0 generals, 0 SOSs, and 0 indicators.
Presolve time = 0.01 sec. (8.10 ticks)
Probing time = 0.01 sec. (2.67 ticks)
Clique table members: 5892.
MIP emphasis: balance optimality and feasibility.
MIP search method: dynamic search.
Parallel mode: none, using 1 thread.
Root relaxation solution time = 0.01 sec. (4.85 ticks)

        Nodes                                         Cuts/
   Node  Left     Objective  IInf  Best Integer    Best Bound    ItCnt     Gap

*     0+    0                          688.7724      -48.3269           107.02%
      0     0      188.5780    12      688.7724      188.5780      168   72.62%
*     0+    0                          204.6711      188.5780             7.86%
*     0+    0                          188.9208      188.5780             0.18%
      0     0      188.8521     2      188.9208      Cuts: 16      173    0.04%
*     0+    0                          188.8873      188.8521             0.02%
      0     0        cutoff            188.8873                    175    0.00%
Elapsed time = 0.20 sec. (109.44 ticks, tree = 0.01 MB, solutions = 4)

Clique cuts applied:  1
Cover cuts applied:  14
Gomory fractional cuts applied:  7

Root node processing (before b&c):
  Real time             =    0.21 sec. (111.16 ticks)
Sequential b&c:
  Real time             =    0.00 sec. (0.00 ticks)
                          ------------
Total (root+branch&cut) =    0.21 sec. (111.16 ticks)

Solution pool: 4 solutions saved.

MIP - Integer optimal solution:  Objective =  1.8888727100e+02
Solution time =    0.21 sec.  Iterations = 175  Nodes = 0
Deterministic time = 111.26 ticks  (541.48 ticks/sec)

CPLEX> Incumbent solution written to file '/tmp/cmpl.T24175.gsol'.
CPLEX> 
CMPL: Time used for model generation: 1 seconds
CMPL: Time used for solving the model: 1 seconds


Solution written to ASCII file: results/output_generated_conf_0.5/2017-03-06-4/fair-nonlinear.sol

Solver - finished
